&BANDS
    prefix      = 'ZnO'
    outdir      = './out/files/'
    filband     = 'data/bands/ZnO_up.bands.dat'
    spin_component = 1
/
