&BANDS
    prefix      = 'ZnO'
    outdir      = './out/files/'
    filband     = 'data/bands/ZnO_down.bands.dat'
    spin_component = 2
/
